nN = 5;
nR = 15;
nH = 1;

a = [[14, 9, 25, 20, 15, 23, 23, 14, 5, 7, 25, 16, 13, 21, 11], [24, 22, 10, 20, 10, 5, 14, 10, 11, 14, 13, 24, 17, 9, 18], [23, 22, 10, 23, 21, 23, 6, 13, 5, 11, 9, 20, 19, 14, 14], [21, 17, 12, 8, 13, 7, 17, 21, 19, 22, 5, 11, 13, 11, 23], [7, 16, 10, 12, 24, 18, 11, 15, 11, 12, 8, 9, 22, 25, 6]];
c = [[[0, 0, 0, 0, 0, 0, 0, 0, 0, 0, 0, 0, 0, 0, 0], [47, 37, 32, 47, 38, 50, 47, 34, 49, 38, 46, 30, 50, 31, 34], [31, 31, 45, 36, 50, 39, 46, 42, 40, 34, 43, 36, 39, 46, 43], [43, 49, 46, 46, 44, 32, 46, 35, 39, 43, 37, 34, 48, 49, 30], [45, 32, 39, 37, 38, 39, 42, 33, 34, 38, 48, 42, 49, 33, 31]], [[0, 0, 0, 0, 0, 0, 0, 0, 0, 0, 0, 0, 0, 0, 0], [0, 0, 0, 0, 0, 0, 0, 0, 0, 0, 0, 0, 0, 0, 0], [37, 43, 41, 35, 30, 44, 36, 47, 37, 35, 42, 39, 48, 50, 48], [34, 32, 30, 46, 37, 35, 46, 33, 37, 34, 32, 34, 41, 50, 33], [32, 34, 39, 43, 33, 32, 31, 37, 43, 37, 45, 32, 31, 44, 46]], [[0, 0, 0, 0, 0, 0, 0, 0, 0, 0, 0, 0, 0, 0, 0], [0, 0, 0, 0, 0, 0, 0, 0, 0, 0, 0, 0, 0, 0, 0], [0, 0, 0, 0, 0, 0, 0, 0, 0, 0, 0, 0, 0, 0, 0], [47, 45, 33, 47, 37, 47, 49, 41, 34, 42, 41, 37, 44, 44, 40], [33, 30, 35, 42, 42, 32, 43, 32, 42, 45, 31, 48, 32, 50, 35]], [[0, 0, 0, 0, 0, 0, 0, 0, 0, 0, 0, 0, 0, 0, 0], [0, 0, 0, 0, 0, 0, 0, 0, 0, 0, 0, 0, 0, 0, 0], [0, 0, 0, 0, 0, 0, 0, 0, 0, 0, 0, 0, 0, 0, 0], [0, 0, 0, 0, 0, 0, 0, 0, 0, 0, 0, 0, 0, 0, 0], [47, 41, 34, 43, 42, 45, 45, 47, 42, 32, 34, 47, 46, 39, 31]], [[0, 0, 0, 0, 0, 0, 0, 0, 0, 0, 0, 0, 0, 0, 0], [0, 0, 0, 0, 0, 0, 0, 0, 0, 0, 0, 0, 0, 0, 0], [0, 0, 0, 0, 0, 0, 0, 0, 0, 0, 0, 0, 0, 0, 0], [0, 0, 0, 0, 0, 0, 0, 0, 0, 0, 0, 0, 0, 0, 0], [0, 0, 0, 0, 0, 0, 0, 0, 0, 0, 0, 0, 0, 0, 0]]];
Q = [[37], [35], [35], [37], [33]];

q = [[[23], [9], [6], [17], [23], [25], [17], [21], [8], [10], [9], [16], [10], [12], [20]], [[10], [19], [21], [15], [13], [8], [11], [13], [12], [7], [12], [24], [11], [18], [21]], [[6], [18], [25], [12], [16], [16], [6], [17], [22], [10], [20], [13], [22], [5], [10]], [[9], [22], [9], [21], [20], [9], [12], [14], [8], [24], [16], [8], [25], [15], [19]], [[20], [17], [24], [19], [15], [19], [7], [9], [21], [11], [5], [8], [10], [15], [5]]];
p = [0.55, 0.44, 0.62, 0.68, 0.81, 0.83, 0.03, 0.27, 0.86, 0.04, 0.94, 0.5, 0.3, 0.82, 0.93];
